c Formula 2 - Larger benchmark
c This formula contains various simplification opportunities
c Including tautologies, duplicates, subsumptions, and unit clauses
p cnf 50 203
7 0
-15 0
1 2 3 0
1 2 0
1 2 4 0
1 2 5 6 0
4 5 6 0
4 5 0
4 5 7 0
4 5 8 9 0
10 -10 11 0
-8 9 10 0
11 12 13 0
14 15 16 0
-14 17 18 0
19 20 21 0
-19 22 23 0
24 25 26 0
27 28 29 0
30 31 32 0
-30 33 34 0
35 36 37 0
38 39 40 0
41 42 43 0
44 45 46 0
47 48 49 0
-47 50 1 0
2 3 4 5 0
2 3 0
2 3 5 0
2 3 5 6 0
6 7 8 0
9 10 11 0
12 13 14 0
15 -15 16 0
16 17 18 0
19 20 21 0
-20 21 22 0
23 24 25 0
26 27 28 0
29 30 31 0
32 33 34 0
35 36 37 0
38 39 40 0
41 42 43 0
44 45 46 0
47 48 49 0
-1 -2 -3 0
-4 -5 -6 0
-7 -8 -9 0
-10 -11 -12 0
-13 -14 -15 0
-16 -17 -18 0
-19 -20 -21 0
-22 -23 -24 0
-25 -26 -27 0
-28 -29 -30 0
1 2 3 0
8 9 10 0
11 12 13 0
14 16 17 0
18 19 20 0
21 22 23 0
24 25 26 0
27 28 29 0
30 32 33 0
34 35 36 0
37 38 39 0
40 41 42 0
43 44 45 0
46 47 48 0
49 50 1 0
2 4 6 0
8 10 12 0
14 16 18 0
20 22 24 0
26 28 30 0
32 34 36 0
38 40 42 0
44 46 48 0
50 2 4 0
6 8 10 0
12 14 16 0
18 20 22 0
24 26 28 0
30 32 34 0
36 38 40 0
42 44 46 0
48 50 2 0
-1 3 5 0
-2 4 6 0
-3 5 7 0
-4 6 8 0
-5 7 9 0
-6 8 10 0
-7 9 11 0
-8 10 12 0
-9 11 13 0
-10 12 14 0
-11 13 15 0
-12 14 16 0
-13 15 17 0
-14 16 18 0
8 9 10 0
-16 18 20 0
-17 19 21 0
-18 20 22 0
-21 23 25 0
-22 24 26 0
-23 25 27 0
-24 26 28 0
-25 27 29 0
-26 28 30 0
-27 29 31 0
-28 30 32 0
-29 31 33 0
-31 33 35 0
-32 34 36 0
-33 35 37 0
-34 36 38 0
-35 37 39 0
-36 38 40 0
-37 39 41 0
-38 40 42 0
-39 41 43 0
-40 42 44 0
-41 43 45 0
-42 44 46 0
-43 45 47 0
-44 46 48 0
-45 47 49 0
-46 48 50 0
1 5 9 0
2 6 10 0
3 7 11 0
4 8 12 0
5 9 13 0
6 10 14 0
11 12 13 0
8 12 16 0
9 13 17 0
10 14 18 0
11 15 19 0
12 16 20 0
13 17 21 0
14 18 22 0
15 19 23 0
16 20 24 0
17 21 25 0
18 22 26 0
19 23 27 0
20 24 28 0
21 25 29 0
22 26 30 0
23 27 31 0
24 28 32 0
25 29 33 0
26 30 34 0
27 31 35 0
28 32 36 0
29 33 37 0
30 34 38 0
31 35 39 0
32 36 40 0
33 37 41 0
34 38 42 0
35 39 43 0
36 40 44 0
37 41 45 0
38 42 46 0
39 43 47 0
40 44 48 0
41 45 49 0
42 46 50 0
3 -3 17 18 0
-1 -5 -9 0
-2 -6 -10 0
-3 -7 -11 0
-4 -8 -12 0
20 -20 25 0
-6 -10 -14 0
-7 -11 -15 0
-8 -12 -16 0
-9 -13 -17 0
-10 -14 -18 0
-11 -15 -19 0
-12 -16 -20 0
-13 -17 -21 0
-14 -18 -22 0
1 2 4 0
1 -2 3 0
-1 2 5 0
-1 -2 6 0
3 4 7 0
3 4 0
3 4 8 0
3 4 8 9 0
5 6 8 0
7 8 9 0
10 11 12 0
13 14 15 0